Problem:    
Rows:       10
Columns:    13 (12 integer, 12 binary)
Non-zeros:  39
Status:     INTEGER OPTIMAL
Objective:  OBJ = 0.7992390778 (MINimum)

   No.   Row name        Activity     Lower bound   Upper bound
------ ------------    ------------- ------------- -------------
     1 _C1                         1             1             = 
     2 _C10                        0             0               
     3 _C2                         1             1             = 
     4 _C3                         1             1             = 
     5 _C4                         1             1             = 
     6 _C5                    310.51                      505.67 
     7 _C6                    367.07                      503.68 
     8 _C7                    560.89                      701.78 
     9 _C8                  0.185182             0               
    10 _C9                 0.0704629             0               

   No. Column name       Activity     Lower bound   Upper bound
------ ------------    ------------- ------------- -------------
     1 z                    0.799239             0             1 
     2 x_0_0        *              0             0             1 
     3 x_0_1        *              1             0             1 
     4 x_0_2        *              0             0             1 
     5 x_1_2        *              1             0             1 
     6 x_2_2        *              0             0             1 
     7 x_3_2        *              0             0             1 
     8 x_1_0        *              0             0             1 
     9 x_1_1        *              0             0             1 
    10 x_2_0        *              1             0             1 
    11 x_2_1        *              0             0             1 
    12 x_3_0        *              0             0             1 
    13 x_3_1        *              1             0             1 

Integer feasibility conditions:

KKT.PE: max.abs.err = 0.00e+00 on row 0
        max.rel.err = 0.00e+00 on row 0
        High quality

KKT.PB: max.abs.err = 0.00e+00 on row 0
        max.rel.err = 0.00e+00 on row 0
        High quality

End of output
